Version identifier: 22.1.1.0 | 2022-11-28 | 9160aff4d
CPXPARAM_ClockType                               1
CPXPARAM_Read_DataCheck                          1
CPXPARAM_Threads                                 1
CPXPARAM_Simplex_Tolerances_Optimality           1.0000000000000001e-09
CPXPARAM_TimeLimit                               7200
CPXPARAM_MIP_Tolerances_AbsMIPGap                0
CPXPARAM_MIP_Tolerances_MIPGap                   0
CPXPARAM_MIP_Tolerances_Integrality              0
Tried aggregator 5 times.
MIQP Presolve eliminated 25740 rows and 4226 columns.
MIQP Presolve modified 18 coefficients.
Aggregator did 2223 substitutions.
Reduced MIQP has 9804 rows, 3791 columns, and 29796 nonzeros.
Reduced MIQP has 3601 binaries, 190 generals, 0 SOSs, and 0 indicators.
Reduced MIQP objective Q matrix has 190 nonzeros.
Presolve time = 0.09 sec. (70.86 ticks)
Probing time = 0.01 sec. (3.05 ticks)
Tried aggregator 1 time.
Reduced MIQP has 9804 rows, 3791 columns, and 29796 nonzeros.
Reduced MIQP has 3601 binaries, 190 generals, 0 SOSs, and 0 indicators.
Reduced MIQP objective Q matrix has 190 nonzeros.
Presolve time = 0.02 sec. (15.69 ticks)
Classifier predicts products in MIQP should be linearized.
Probing time = 0.01 sec. (2.98 ticks)
Clique table members: 8983.
MIP emphasis: balance optimality and feasibility.
MIP search method: dynamic search.
Parallel mode: none, using 1 thread.
Root relaxation solution time = 4.57 sec. (4781.85 ticks)

        Nodes                                         Cuts/
   Node  Left     Objective  IInf  Best Integer    Best Bound    ItCnt     Gap

      0     0     4750.0000  1909                   4750.0000       12         
*     0+    0                         4750.0000     4750.0000             0.00%
      0     0        cutoff           4750.0000     4750.0000       12    0.00%
Elapsed time = 4.74 sec. (4906.56 ticks, tree = 0.01 MB, solutions = 1)

Root node processing (before b&c):
  Real time             =    4.74 sec. (4906.85 ticks)
Sequential b&c:
  Real time             =    0.00 sec. (0.00 ticks)
                          ------------
Total (root+branch&cut) =    4.74 sec. (4906.85 ticks)
Solution is feasible.

---------------------
@@@ MIP_optimal
>>> Benchmark mc2024_track1_180.cnf k 10 OPT 4750 TimeCost 10.667545318603516 TimeSolve 4.791769504547119 TimeRead 0.00547337532043457 TimeTrans 5.870302438735962
